p edge 540 1296
e 1 4
e 1 204
e 1 487
e 2 358
e 2 390
e 2 442
e 3 32
e 3 270
e 3 481
e 4 40
e 4 42
e 4 147
e 4 310
e 4 323
e 4 338
e 4 355
e 4 370
e 4 433
e 4 454
e 4 490
e 5 192
e 5 378
e 5 461
e 6 45
e 6 74
e 6 92
e 6 113
e 6 219
e 6 316
e 6 327
e 6 364
e 6 419
e 6 463
e 6 485
e 6 495
e 7 15
e 7 95
e 7 351
e 8 73
e 8 389
e 8 479
e 9 15
e 9 416
e 9 526
e 10 30
e 10 71
e 10 76
e 10 127
e 10 154
e 10 157
e 10 232
e 10 379
e 10 412
e 10 441
e 10 496
e 10 508
e 11 55
e 11 67
e 11 173
e 11 242
e 11 304
e 11 330
e 11 356
e 11 383
e 11 418
e 11 468
e 11 512
e 11 521
e 12 22
e 12 43
e 12 461
e 13 15
e 13 470
e 13 489
e 14 189
e 14 341
e 14 479
e 15 70
e 15 128
e 15 137
e 15 166
e 15 167
e 15 244
e 15 386
e 15 422
e 15 447
e 16 63
e 16 107
e 16 135
e 16 136
e 16 196
e 16 218
e 16 374
e 16 376
e 16 427
e 16 497
e 16 501
e 16 528
e 17 227
e 17 334
e 17 358
e 18 337
e 18 489
e 18 504
e 19 189
e 19 294
e 19 526
e 20 162
e 20 524
e 20 530
e 21 27
e 21 64
e 21 133
e 21 175
e 21 295
e 21 298
e 21 370
e 21 436
e 21 453
e 21 474
e 21 517
e 21 520
e 22 41
e 22 63
e 22 88
e 22 127
e 22 139
e 22 181
e 22 226
e 22 266
e 22 308
e 22 429
e 22 536
e 23 229
e 23 459
e 23 530
e 24 153
e 24 240
e 24 367
e 25 299
e 25 377
e 25 504
e 26 134
e 26 482
e 26 504
e 27 434
e 27 442
e 28 334
e 28 378
e 28 531
e 29 172
e 29 350
e 29 416
e 30 192
e 30 389
e 31 102
e 31 162
e 31 358
e 32 49
e 32 66
e 32 68
e 32 85
e 32 91
e 32 164
e 32 210
e 32 221
e 32 258
e 32 324
e 32 429
e 33 202
e 33 416
e 33 524
e 34 95
e 34 174
e 34 491
e 35 86
e 35 153
e 35 539
e 36 73
e 36 118
e 36 368
e 37 372
e 37 389
e 37 479
e 38 202
e 38 223
e 38 504
e 39 95
e 39 240
e 39 526
e 40 240
e 40 387
e 41 75
e 41 153
e 42 53
e 42 270
e 43 93
e 43 131
e 43 176
e 43 275
e 43 311
e 43 324
e 43 331
e 43 392
e 43 426
e 43 448
e 43 509
e 44 86
e 44 126
e 44 268
e 45 95
e 45 270
e 46 129
e 46 371
e 46 503
e 47 125
e 47 389
e 47 491
e 48 357
e 48 399
e 48 471
e 49 75
e 49 223
e 50 134
e 50 407
e 50 503
e 51 73
e 51 174
e 51 223
e 52 86
e 52 358
e 52 530
e 53 99
e 53 101
e 53 146
e 53 180
e 53 206
e 53 251
e 53 318
e 53 373
e 53 403
e 53 486
e 53 538
e 54 59
e 54 60
e 54 152
e 54 191
e 54 250
e 54 265
e 54 279
e 54 303
e 54 338
e 54 353
e 54 362
e 54 444
e 55 489
e 55 531
e 56 204
e 56 396
e 56 530
e 57 84
e 57 458
e 57 487
e 58 202
e 58 249
e 58 358
e 59 97
e 59 489
e 60 204
e 60 227
e 61 204
e 61 229
e 61 390
e 62 162
e 62 268
e 62 435
e 63 389
e 64 123
e 64 276
e 65 162
e 65 434
e 65 534
e 66 123
e 66 134
e 67 129
e 67 471
e 68 123
e 68 479
e 69 305
e 69 470
e 69 526
e 70 72
e 70 270
e 71 126
e 71 233
e 72 98
e 72 139
e 72 182
e 72 186
e 72 219
e 72 336
e 72 343
e 72 405
e 72 432
e 72 519
e 72 537
e 73 203
e 73 231
e 73 256
e 73 306
e 73 311
e 73 352
e 73 452
e 73 494
e 73 536
e 74 163
e 74 480
e 75 88
e 75 89
e 75 110
e 75 158
e 75 201
e 75 203
e 75 253
e 75 281
e 75 469
e 75 537
e 76 294
e 76 435
e 77 235
e 77 408
e 77 503
e 78 350
e 78 435
e 78 482
e 79 129
e 79 243
e 79 350
e 80 393
e 80 515
e 80 516
e 81 229
e 81 423
e 81 480
e 82 126
e 82 470
e 82 524
e 83 163
e 83 341
e 83 357
e 84 101
e 84 168
e 84 199
e 84 239
e 84 250
e 84 279
e 84 310
e 84 313
e 84 335
e 84 344
e 84 455
e 85 276
e 85 389
e 86 107
e 86 154
e 86 177
e 86 195
e 86 259
e 86 394
e 86 453
e 86 454
e 86 492
e 87 97
e 87 202
e 87 351
e 88 189
e 89 351
e 89 461
e 90 125
e 90 328
e 90 416
e 91 368
e 91 393
e 92 126
e 92 377
e 93 479
e 93 516
e 94 192
e 94 268
e 94 481
e 95 181
e 95 198
e 95 217
e 95 253
e 95 255
e 95 282
e 95 406
e 95 466
e 96 235
e 96 334
e 96 515
e 97 168
e 97 188
e 97 206
e 97 320
e 97 321
e 97 326
e 97 342
e 97 369
e 97 388
e 97 483
e 98 341
e 98 393
e 99 351
e 99 458
e 100 114
e 100 163
e 100 503
e 101 415
e 102 169
e 102 195
e 102 225
e 102 239
e 102 248
e 102 252
e 102 400
e 102 409
e 102 457
e 102 499
e 102 520
e 103 172
e 103 189
e 103 240
e 104 249
e 104 350
e 104 526
e 105 129
e 105 235
e 105 407
e 106 235
e 106 390
e 106 535
e 107 482
e 108 134
e 108 228
e 108 415
e 109 212
e 109 305
e 109 371
e 110 268
e 110 491
e 111 125
e 111 240
e 111 435
e 112 387
e 112 423
e 112 470
e 113 228
e 113 435
e 114 182
e 114 185
e 114 211
e 114 257
e 114 289
e 114 297
e 114 312
e 114 406
e 114 512
e 114 517
e 114 518
e 115 276
e 115 389
e 115 534
e 116 408
e 116 471
e 116 516
e 117 378
e 117 387
e 117 399
e 118 242
e 118 258
e 118 285
e 118 320
e 118 354
e 118 363
e 118 365
e 118 428
e 118 438
e 118 469
e 118 511
e 119 407
e 119 439
e 119 470
e 120 125
e 120 442
e 120 482
e 121 227
e 121 270
e 121 504
e 122 240
e 122 268
e 122 535
e 123 127
e 123 231
e 123 262
e 123 319
e 123 376
e 123 381
e 123 401
e 123 428
e 123 452
e 124 399
e 124 503
e 124 531
e 125 155
e 125 177
e 125 226
e 125 286
e 125 292
e 125 333
e 125 381
e 125 527
e 126 137
e 126 236
e 126 273
e 126 290
e 126 292
e 126 397
e 126 421
e 126 497
e 128 249
e 128 439
e 129 152
e 129 165
e 129 185
e 129 314
e 129 342
e 129 364
e 129 447
e 129 510
e 130 407
e 130 471
e 130 489
e 131 393
e 131 503
e 132 227
e 132 249
e 132 524
e 133 307
e 133 390
e 134 201
e 134 280
e 134 284
e 134 287
e 134 352
e 134 388
e 134 468
e 134 505
e 135 416
e 135 535
e 136 377
e 136 442
e 137 482
e 138 268
e 138 294
e 138 367
e 139 174
e 140 227
e 140 337
e 140 459
e 141 341
e 141 408
e 141 534
e 142 202
e 142 371
e 142 407
e 143 371
e 143 372
e 143 408
e 144 163
e 144 407
e 144 531
e 145 434
e 145 459
e 145 487
e 146 367
e 146 443
e 147 233
e 147 396
e 148 276
e 148 503
e 148 515
e 149 202
e 149 204
e 149 487
e 150 357
e 150 371
e 150 489
e 151 299
e 151 357
e 151 407
e 152 415
e 153 158
e 153 230
e 153 246
e 153 254
e 153 345
e 153 354
e 153 375
e 153 421
e 153 505
e 154 377
e 155 334
e 155 367
e 156 267
e 156 328
e 156 524
e 157 334
e 157 535
e 158 299
e 159 201
e 159 237
e 159 264
e 159 281
e 159 308
e 159 394
e 159 395
e 159 397
e 159 411
e 159 438
e 159 445
e 159 502
e 160 249
e 160 515
e 160 531
e 161 299
e 161 305
e 161 503
e 162 218
e 162 286
e 162 361
e 162 370
e 162 384
e 162 395
e 162 421
e 162 508
e 163 269
e 163 326
e 163 347
e 163 356
e 163 386
e 163 404
e 163 444
e 163 467
e 164 174
e 164 351
e 165 305
e 165 531
e 166 228
e 166 539
e 167 189
e 167 223
e 168 423
e 169 235
e 169 328
e 170 341
e 170 489
e 170 503
e 171 367
e 171 390
e 171 531
e 172 282
e 172 327
e 172 332
e 172 360
e 172 362
e 172 405
e 172 413
e 172 418
e 172 422
e 172 522
e 173 480
e 173 526
e 174 183
e 174 246
e 174 264
e 174 266
e 174 438
e 174 473
e 174 505
e 174 540
e 175 307
e 175 371
e 176 387
e 176 408
e 177 228
e 178 229
e 178 233
e 178 458
e 179 212
e 179 223
e 179 415
e 180 524
e 180 535
e 181 481
e 182 276
e 183 268
e 183 299
e 184 299
e 184 389
e 184 461
e 185 357
e 186 192
e 186 481
e 187 396
e 187 408
e 187 515
e 188 223
e 188 227
e 189 300
e 189 325
e 189 391
e 189 419
e 189 484
e 189 518
e 189 540
e 190 371
e 190 399
e 190 534
e 191 377
e 191 526
e 192 210
e 192 246
e 192 253
e 192 281
e 192 311
e 192 374
e 192 381
e 192 540
e 193 328
e 193 423
e 193 443
e 194 268
e 194 442
e 194 539
e 195 443
e 196 328
e 196 334
e 197 229
e 197 399
e 197 515
e 198 294
e 198 439
e 199 202
e 199 337
e 200 235
e 200 305
e 200 489
e 202 289
e 202 303
e 202 383
e 202 430
e 202 456
e 203 270
e 204 215
e 204 252
e 204 265
e 204 291
e 204 321
e 204 486
e 204 506
e 205 307
e 205 387
e 205 515
e 206 459
e 207 243
e 207 435
e 207 524
e 208 267
e 208 358
e 208 367
e 209 235
e 209 367
e 209 530
e 210 515
e 211 227
e 211 407
e 212 214
e 212 215
e 212 279
e 212 283
e 212 301
e 212 340
e 212 366
e 212 369
e 212 382
e 212 512
e 213 294
e 213 396
e 213 434
e 214 459
e 214 487
e 215 337
e 216 235
e 216 307
e 216 357
e 217 223
e 217 350
e 218 228
e 219 223
e 220 337
e 220 377
e 220 439
e 221 299
e 221 368
e 222 443
e 222 470
e 222 539
e 223 355
e 223 373
e 223 449
e 223 493
e 224 461
e 224 491
e 224 515
e 225 367
e 225 471
e 226 368
e 227 293
e 227 304
e 227 344
e 227 348
e 227 398
e 228 232
e 228 236
e 228 272
e 228 277
e 228 362
e 228 365
e 228 483
e 229 239
e 229 288
e 229 329
e 229 331
e 229 346
e 229 403
e 229 490
e 230 435
e 230 442
e 231 393
e 232 442
e 233 245
e 233 282
e 233 333
e 233 375
e 233 391
e 233 432
e 233 501
e 233 502
e 233 533
e 234 482
e 234 487
e 234 526
e 235 309
e 235 356
e 235 414
e 235 448
e 236 350
e 237 294
e 237 535
e 238 367
e 238 423
e 238 524
e 240 288
e 240 343
e 240 379
e 240 380
e 240 411
e 240 497
e 241 267
e 241 443
e 241 535
e 242 503
e 243 263
e 243 273
e 243 302
e 243 316
e 243 330
e 243 386
e 243 403
e 243 420
e 243 465
e 243 522
e 244 377
e 244 435
e 245 268
e 245 328
e 247 368
e 247 393
e 247 534
e 248 396
e 248 459
e 249 283
e 249 327
e 249 427
e 249 441
e 249 448
e 249 450
e 249 527
e 250 434
e 251 328
e 251 358
e 252 387
e 254 294
e 254 328
e 255 276
e 255 341
e 256 351
e 256 481
e 257 489
e 257 516
e 258 389
e 259 390
e 259 524
e 260 267
e 260 415
e 260 459
e 261 358
e 261 423
e 261 535
e 262 372
e 262 393
e 263 358
e 263 539
e 264 491
e 265 458
e 266 268
e 267 317
e 267 321
e 267 323
e 267 335
e 267 346
e 267 420
e 267 462
e 267 493
e 268 280
e 268 469
e 269 305
e 269 471
e 270 300
e 270 369
e 270 456
e 270 462
e 270 473
e 270 507
e 271 423
e 271 459
e 271 504
e 272 337
e 272 526
e 273 443
e 274 415
e 274 487
e 274 489
e 275 416
e 275 531
e 276 306
e 276 319
e 276 325
e 276 339
e 276 417
e 276 426
e 277 439
e 277 487
e 278 334
e 278 350
e 278 439
e 280 481
e 283 443
e 284 368
e 284 461
e 285 407
e 285 516
e 286 377
e 287 305
e 287 516
e 288 434
e 289 305
e 290 358
e 290 480
e 291 415
e 291 423
e 292 294
e 293 351
e 293 415
e 294 405
e 294 424
e 294 490
e 294 528
e 295 368
e 295 479
e 296 307
e 296 341
e 296 372
e 297 307
e 297 534
e 298 341
e 298 399
e 299 425
e 299 445
e 299 452
e 299 483
e 299 521
e 300 350
e 301 341
e 301 407
e 302 396
e 302 423
e 303 459
e 304 371
e 305 348
e 305 359
e 305 363
e 305 522
e 306 368
e 307 331
e 307 410
e 307 478
e 307 499
e 307 514
e 307 523
e 308 481
e 309 378
e 309 416
e 310 337
e 312 372
e 312 399
e 313 390
e 313 396
e 314 341
e 314 516
e 315 389
e 315 393
e 315 461
e 316 489
e 317 396
e 317 480
e 318 387
e 318 480
e 319 461
e 320 482
e 322 471
e 322 530
e 322 535
e 323 351
e 324 491
e 325 371
e 326 487
e 328 411
e 328 441
e 328 472
e 328 525
e 329 378
e 329 408
e 330 439
e 332 377
e 332 487
e 333 539
e 334 382
e 334 422
e 334 430
e 334 495
e 334 509
e 335 504
e 336 371
e 336 479
e 337 342
e 337 360
e 337 404
e 337 451
e 337 506
e 338 459
e 339 378
e 339 516
e 340 351
e 340 504
e 341 348
e 341 383
e 343 439
e 344 487
e 345 481
e 345 491
e 346 470
e 347 371
e 347 516
e 349 387
e 349 390
e 349 459
e 350 402
e 350 467
e 350 498
e 350 519
e 351 419
e 351 460
e 351 519
e 352 389
e 353 439
e 353 482
e 354 481
e 355 423
e 357 363
e 357 426
e 357 431
e 357 468
e 357 529
e 357 532
e 358 366
e 358 464
e 359 439
e 359 480
e 360 482
e 361 390
e 361 443
e 364 470
e 365 504
e 366 416
e 367 427
e 367 496
e 367 502
e 368 374
e 368 412
e 368 417
e 368 513
e 371 466
e 372 384
e 372 417
e 372 433
e 372 476
e 372 492
e 372 499
e 372 500
e 373 434
e 375 535
e 376 491
e 377 388
e 377 402
e 377 511
e 378 429
e 378 431
e 378 450
e 378 475
e 378 494
e 378 523
e 379 539
e 380 396
e 380 458
e 382 524
e 384 458
e 385 442
e 385 458
e 385 534
e 387 420
e 387 424
e 387 455
e 387 533
e 389 474
e 390 472
e 390 488
e 390 500
e 391 439
e 392 396
e 392 399
e 393 431
e 393 466
e 393 474
e 393 518
e 394 435
e 395 539
e 396 523
e 396 538
e 397 442
e 398 416
e 398 443
e 399 414
e 399 476
e 399 488
e 399 520
e 400 408
e 400 534
e 401 479
e 401 534
e 402 539
e 404 415
e 406 479
e 407 413
e 407 465
e 408 436
e 408 500
e 408 517
e 408 532
e 409 531
e 409 535
e 410 516
e 410 531
e 412 491
e 413 480
e 414 516
e 415 425
e 415 456
e 415 511
e 416 437
e 416 463
e 416 496
e 418 470
e 423 460
e 423 507
e 424 458
e 425 482
e 428 461
e 430 443
e 432 526
e 433 442
e 434 460
e 434 462
e 434 492
e 434 506
e 434 533
e 435 464
e 435 477
e 435 501
e 436 530
e 437 471
e 437 515
e 439 463
e 440 480
e 440 524
e 440 539
e 442 446
e 442 457
e 443 446
e 443 477
e 444 504
e 445 481
e 446 530
e 447 480
e 449 461
e 449 481
e 450 471
e 451 458
e 451 459
e 453 458
e 454 534
e 455 530
e 457 524
e 458 493
e 458 507
e 461 473
e 461 513
e 464 470
e 465 526
e 467 470
e 470 538
e 471 472
e 471 478
e 471 509
e 475 479
e 475 503
e 476 530
e 477 480
e 478 503
e 479 513
e 479 529
e 480 498
e 481 484
e 482 485
e 482 508
e 484 491
e 485 539
e 486 504
e 487 510
e 488 534
e 489 498
e 491 494
e 491 537
e 495 526
e 504 510
e 514 530
e 514 534
e 515 529
e 515 536
e 516 521
e 525 530
e 525 531
e 527 535
e 528 539
e 531 532
